(set-info :smt-lib-version 2.6)
(set-info :category "crafted")
(set-logic QF_FFA)
(define-sort FF0 () (_ FiniteField 52435875175126190479447740508185965837690552500527637822603658699938581184513))
(declare-fun _16_alt () FF0)
(declare-fun _14_alt () FF0)
(declare-fun _13_alt () FF0)
(declare-fun _5_alt () FF0)
(declare-fun _9_alt () FF0)
(declare-fun _4_alt () FF0)
(declare-fun _2_alt () FF0)
(declare-fun _0_alt () FF0)
(declare-fun _8_alt () FF0)
(declare-fun _1_alt () FF0)
(declare-fun _6_alt () FF0)
(declare-fun _3_alt () FF0)
(declare-fun _16 () FF0)
(declare-fun _14 () FF0)
(declare-fun _13 () FF0)
(declare-fun _5 () FF0)
(declare-fun _9 () FF0)
(declare-fun _4 () FF0)
(declare-fun _2 () FF0)
(declare-fun _0 () FF0)
(declare-fun _8 () FF0)
(declare-fun _1 () FF0)
(declare-fun _6 () FF0)
(declare-fun _3 () FF0)
(declare-fun out_alt () FF0)
(declare-fun out () FF0)
(assert 
  (let ((let0 _16_alt))
  (let ((let1 _14_alt))
  (let ((let2 _13_alt))
  (let ((let3 (ff.add let2 let1)))
  (let ((let4 _5_alt))
  (let ((let5 (ff.mul let4 let3)))
  (let ((let6 (= let5 let0)))
  (let ((let7 _9_alt))
  (let ((let8 (as ff1 FF0)))
  (let ((let9 (as ff52435875175126190479447740508185965837690552500527637822603658699938581184512 FF0)))
  (let ((let10 _4_alt))
  (let ((let11 (ff.mul let10 let9)))
  (let ((let12 (ff.add let11 let8)))
  (let ((let13 (ff.mul let12 let7)))
  (let ((let14 (= let13 let1)))
  (let ((let15 _2_alt))
  (let ((let16 (ff.mul let10 let15)))
  (let ((let17 (= let16 let2)))
  (let ((let18 _0_alt))
  (let ((let19 _8_alt))
  (let ((let20 (ff.mul let19 let18)))
  (let ((let21 (= let20 let7)))
  (let ((let22 _1_alt))
  (let ((let23 _6_alt))
  (let ((let24 (ff.mul let23 let9)))
  (let ((let25 (ff.add let24 let8)))
  (let ((let26 (ff.mul let25 let22)))
  (let ((let27 (= let26 let19)))
  (let ((let28 _3_alt))
  (let ((let29 (ff.mul let28 let9)))
  (let ((let30 (ff.add let15 let29)))
  (let ((let31 (ff.mul let30 let30)))
  (let ((let32 (= let31 let23)))
  (let ((let33 (ff.mul let4 let4)))
  (let ((let34 (= let33 let4)))
  (let ((let35 (ff.mul let10 let10)))
  (let ((let36 (= let35 let10)))
  (let ((let37 (ff.mul let28 let28)))
  (let ((let38 (= let37 let28)))
  (let ((let39 (ff.mul let15 let15)))
  (let ((let40 (= let39 let15)))
  (let ((let41 (ff.mul let22 let22)))
  (let ((let42 (= let41 let22)))
  (let ((let43 (ff.mul let18 let18)))
  (let ((let44 (= let43 let18)))
  (let ((let45 (and let44 let42 let40 let38 let36 let34 let32 let27 let21 let17 let14 let6)))
  (let ((let46 _16))
  (let ((let47 _14))
  (let ((let48 _13))
  (let ((let49 (ff.add let48 let47)))
  (let ((let50 _5))
  (let ((let51 (ff.mul let50 let49)))
  (let ((let52 (= let51 let46)))
  (let ((let53 _9))
  (let ((let54 _4))
  (let ((let55 (ff.mul let54 let9)))
  (let ((let56 (ff.add let55 let8)))
  (let ((let57 (ff.mul let56 let53)))
  (let ((let58 (= let57 let47)))
  (let ((let59 _2))
  (let ((let60 (ff.mul let54 let59)))
  (let ((let61 (= let60 let48)))
  (let ((let62 _0))
  (let ((let63 _8))
  (let ((let64 (ff.mul let63 let62)))
  (let ((let65 (= let64 let53)))
  (let ((let66 _1))
  (let ((let67 _6))
  (let ((let68 (ff.mul let67 let9)))
  (let ((let69 (ff.add let68 let8)))
  (let ((let70 (ff.mul let69 let66)))
  (let ((let71 (= let70 let63)))
  (let ((let72 _3))
  (let ((let73 (ff.mul let72 let9)))
  (let ((let74 (ff.add let59 let73)))
  (let ((let75 (ff.mul let74 let74)))
  (let ((let76 (= let75 let67)))
  (let ((let77 (ff.mul let50 let50)))
  (let ((let78 (= let77 let50)))
  (let ((let79 (ff.mul let54 let54)))
  (let ((let80 (= let79 let54)))
  (let ((let81 (ff.mul let72 let72)))
  (let ((let82 (= let81 let72)))
  (let ((let83 (ff.mul let59 let59)))
  (let ((let84 (= let83 let59)))
  (let ((let85 (ff.mul let66 let66)))
  (let ((let86 (= let85 let66)))
  (let ((let87 (ff.mul let62 let62)))
  (let ((let88 (= let87 let62)))
  (let ((let89 (and let88 let86 let84 let82 let80 let78 let76 let71 let65 let61 let58 let52)))
  (let ((let90 out_alt))
  (let ((let91 out))
  (let ((let92 (= let91 let90)))
  (let ((let93 (not let92)))
  (let ((let94 (= let54 let10)))
  (let ((let95 (= let50 let4)))
  (let ((let96 (= let59 let15)))
  (let ((let97 (= let66 let22)))
  (let ((let98 (= let62 let18)))
  (let ((let99 (= let72 let28)))
  (let ((let100 (and let99 let98 let97 let96 let95 let94)))
  (let ((let101 (and let100 let93 let89 let45)))
  let101
))))))))))))))))))))))))))))))))))))))))))))))))))))))))))))))))))))))))))))))))))))))))))))))))))))))
)
(check-sat)
